Set parameter TokenServer to value "license1.computecanada.ca"
Read LP format model from file Data/sens-data/complex/full-model/exp-zero-cw1-cc1-cv10-gam95-complex-p2.lp
Reading time = 2.39 seconds
: 971 rows, 10999 columns, 2214263 nonzeros
Gurobi Optimizer version 9.5.0 build v9.5.0rc5 (linux64)
Thread count: 64 physical cores, 64 logical processors, using up to 32 threads
Optimize a model with 971 rows, 10999 columns and 2214263 nonzeros
Model fingerprint: 0x5dc8ed7d
Coefficient statistics:
  Matrix range     [9e-03, 9e+01]
  Objective range  [4e+03, 5e+03]
  Bounds range     [0e+00, 0e+00]
  RHS range        [1e+00, 1e+00]

Concurrent LP optimizer: primal simplex, dual simplex, and barrier
Showing barrier log only...

Presolve removed 412 rows and 8217 columns
Presolve time: 0.29s
Presolved: 559 rows, 2782 columns, 159932 nonzeros

Ordering time: 0.00s

Barrier statistics:
 AA' NZ     : 7.976e+04
 Factor NZ  : 1.381e+05 (roughly 2 MB of memory)
 Factor Ops : 4.487e+07 (less than 1 second per iteration)
 Threads    : 30

                  Objective                Residual
Iter       Primal          Dual         Primal    Dual     Compl     Time
   0  -1.88834537e+07 -1.04278872e+05  3.17e+03 9.92e+01  3.06e+03     1s
   1  -5.36751209e+06 -1.18066108e+05  8.90e+02 5.32e+02  9.38e+02     1s
   2  -1.33435105e+06 -1.34822143e+05  2.08e+02 1.42e+01  2.34e+02     1s
   3  -3.53078311e+05 -1.22502496e+05  4.22e+01 4.83e+00  5.13e+01     2s
   4  -1.95520175e+05 -1.12379941e+05  1.55e+01 5.69e-01  1.95e+01     2s
   5  -1.38937096e+05 -1.08999953e+05  5.87e+00 6.94e-01  7.81e+00     3s
   6  -1.17162396e+05 -1.06891083e+05  2.17e+00 2.41e-01  3.14e+00     3s
   7  -1.10087666e+05 -1.05912227e+05  9.63e-01 1.28e-01  1.51e+00     3s
   8  -1.06659491e+05 -1.05178985e+05  3.78e-01 5.43e-02  6.55e-01     4s
   9  -1.05187323e+05 -1.04750316e+05  1.26e-01 1.61e-02  2.43e-01     4s
  10  -1.04797759e+05 -1.04627586e+05  5.83e-02 8.75e-03  1.21e-01     5s
  11  -1.04629130e+05 -1.04558000e+05  2.90e-02 3.75e-03  6.20e-02     5s
  12  -1.04534940e+05 -1.04527377e+05  1.17e-02 2.00e-03  3.05e-02    10s
  13  -1.04505405e+05 -1.04505279e+05  5.73e-03 8.06e-04  1.52e-02    10s
  14  -1.04490871e+05 -1.04496370e+05  2.72e-03 4.30e-04  8.60e-03    11s
  15  -1.04484450e+05 -1.04489831e+05  1.27e-03 1.66e-04  4.67e-03    11s
  16  -1.04483205e+05 -1.04487249e+05  8.91e-04 1.03e-04  3.29e-03    11s
  17  -1.04482746e+05 -1.04486084e+05  7.12e-04 7.47e-05  2.63e-03    12s
  18  -1.04481958e+05 -1.04484320e+05  4.16e-04 3.44e-05  1.63e-03    12s
  19  -1.04481930e+05 -1.04483566e+05  3.38e-04 9.62e-06  1.23e-03    13s
  20  -1.04481851e+05 -1.04483029e+05  2.66e-04 6.73e-06  9.27e-04    13s
  21  -1.04481699e+05 -1.04482662e+05  1.66e-04 3.13e-06  6.44e-04    14s
  22  -1.04481619e+05 -1.04482403e+05  9.89e-05 3.14e-07  4.44e-04    14s
  23  -1.04481617e+05 -1.04482273e+05  6.31e-05 0.00e+00  3.29e-04    14s
  24  -1.04481623e+05 -1.04482085e+05  5.26e-05 0.00e+00  2.47e-04    15s
  25  -1.04481670e+05 -1.04481948e+05  3.05e-05 0.00e+00  1.46e-04    15s
  26  -1.04481667e+05 -1.04481847e+05  1.91e-05 0.00e+00  9.23e-05    16s
  27  -1.04481676e+05 -1.04481798e+05  1.23e-05 0.00e+00  6.08e-05    16s
  28  -1.04481681e+05 -1.04481784e+05  1.00e-05 0.00e+00  5.09e-05    16s
  29  -1.04481685e+05 -1.04481774e+05  8.21e-06 0.00e+00  4.26e-05    17s
  30  -1.04481690e+05 -1.04481760e+05  5.96e-06 0.00e+00  3.25e-05    17s
  31  -1.04481695e+05 -1.04481746e+05  4.23e-06 0.00e+00  2.36e-05    18s
  32  -1.04481701e+05 -1.04481739e+05  2.72e-06 0.00e+00  1.67e-05    18s
  33  -1.04481698e+05 -1.04481725e+05  1.86e-06 0.00e+00  1.17e-05    18s
  34  -1.04481701e+05 -1.04481720e+05  1.06e-06 0.00e+00  7.47e-06    19s
  35  -1.04481703e+05 -1.04481718e+05  8.76e-07 0.00e+00  6.16e-06    19s
  36  -1.04481703e+05 -1.04481717e+05  8.25e-07 0.00e+00  5.83e-06    20s
  37  -1.04481703e+05 -1.04481716e+05  5.58e-07 0.00e+00  4.77e-06    20s
  38  -1.04481704e+05 -1.04481713e+05  4.34e-07 0.00e+00  3.57e-06    20s
  39  -1.04481706e+05 -1.04481711e+05  1.86e-07 0.00e+00  1.91e-06    21s
  40  -1.04481707e+05 -1.04481709e+05  9.14e-08 0.00e+00  1.06e-06    21s
  41  -1.04481707e+05 -1.04481709e+05  6.12e-08 0.00e+00  8.42e-07    22s
  42  -1.04481707e+05 -1.04481708e+05  3.45e-08 0.00e+00  5.23e-07    22s
  43  -1.04481707e+05 -1.04481708e+05  1.93e-08 0.00e+00  3.62e-07    23s
  44  -1.04481707e+05 -1.04481708e+05  1.40e-08 0.00e+00  2.95e-07    23s

Barrier solved model in 44 iterations and 23.10 seconds (0.41 work units)
Optimal objective -1.04481707e+05

Crossover log...

     242 DPushes remaining with DInf 0.0000000e+00                23s
       0 DPushes remaining with DInf 0.0000000e+00                24s

       9 PPushes remaining with PInf 2.4751763e-04                24s
       0 PPushes remaining with PInf 2.7061199e-04                24s

  Push phase complete: Pinf 2.7061199e-04, Dinf 7.1574776e+01     24s

Iteration    Objective       Primal Inf.    Dual Inf.      Time
     226   -1.0448171e+05   0.000000e+00   7.157478e+01     25s
     437   -1.0448171e+05   0.000000e+00   2.833013e+04     33s
     557   -1.0448172e+05   0.000000e+00   7.247073e+03     41s
    1067   -1.0448171e+05   5.998510e-02   0.000000e+00     46s
Extra simplex iterations after uncrush: 868

Solved with dual simplex
Solved in 3174 iterations and 45.96 seconds (7.76 work units)
Optimal objective -1.044817078e+05
